c A SAT instance generated from a 3-CNF formula that had 20 clauses and 10 variables
p cnf 10 20
-6 -5 9 0
7 3 10 0
6 7 1 0
8 -1 10 0
-1 4 -3 0
-9 -3 -7 0
-5 -9 2 0
-6 1 -8 0
-10 -2 8 0
-3 6 -7 0
-3 4 2 0
-2 6 -7 0
-4 -2 3 0
-5 10 -3 0
-10 -6 -7 0
-6 2 -3 0
-3 -2 4 0
5 9 4 0
-8 7 -10 0
8 5 6 0
